row=6;
column=6;
left=[9, 11, 0, 10, 0, 10];
right=[16, 6, 0, 13, 0, 11];
top=[0, 6, 11, 0, 0, 0];
bottom=[0, 0, 9, 0, 0, 11];
Board=[|0,0,0,0,0,0|0,0,0,0,0,0|0,0,0,0,0,0|0,0,0,0,0,0|0,0,0,0,0,0|0,0,0,3,0,0|]